p cnf 300 800
1 2 -3 0
1 -2 3 0
-1 2 3 0
-1 -2 -3 0
1 4 5 0
1 -4 -5 0
-1 4 -5 0
-1 -4 5 0
6 7 -8 0
6 -7 8 0
-6 7 8 0
-6 -7 -8 0
9 10 -11 0
9 -10 11 0
-9 10 11 0
-9 -10 -11 0
12 13 14 0
12 -13 -14 0
-12 13 -14 0
-12 -13 14 0
15 16 -17 0
15 -16 17 0
-15 16 17 0
-15 -16 -17 0
18 19 -20 0
18 -19 20 0
-18 19 20 0
-18 -19 -20 0
21 22 23 0
21 -22 -23 0
-21 22 -23 0
-21 -22 23 0
24 25 -26 0
24 -25 26 0
-24 25 26 0
-24 -25 -26 0
27 28 29 0
27 -28 -29 0
-27 28 -29 0
-27 -28 29 0
30 31 -32 0
30 -31 32 0
-30 31 32 0
-30 -31 -32 0
33 34 35 0
33 -34 -35 0
-33 34 -35 0
-33 -34 35 0
36 37 -38 0
36 -37 38 0
-36 37 38 0
-36 -37 -38 0
39 40 -41 0
39 -40 41 0
-39 40 41 0
-39 -40 -41 0
24 42 -43 0
24 -42 43 0
-24 42 43 0
-24 -42 -43 0
44 45 46 0
44 -45 -46 0
-44 45 -46 0
-44 -45 46 0
47 48 49 0
47 -48 -49 0
-47 48 -49 0
-47 -48 49 0
50 51 -52 0
50 -51 52 0
-50 51 52 0
-50 -51 -52 0
53 54 -55 0
53 -54 55 0
-53 54 55 0
-53 -54 -55 0
56 57 58 0
56 -57 -58 0
-56 57 -58 0
-56 -57 58 0
47 59 -60 0
47 -59 60 0
-47 59 60 0
-47 -59 -60 0
27 61 -62 0
27 -61 62 0
-27 61 62 0
-27 -61 -62 0
63 64 -65 0
63 -64 65 0
-63 64 65 0
-63 -64 -65 0
66 67 -68 0
66 -67 68 0
-66 67 68 0
-66 -67 -68 0
69 70 -71 0
69 -70 71 0
-69 70 71 0
-69 -70 -71 0
72 73 -74 0
72 -73 74 0
-72 73 74 0
-72 -73 -74 0
75 76 77 0
75 -76 -77 0
-75 76 -77 0
-75 -76 77 0
28 78 79 0
28 -78 -79 0
-28 78 -79 0
-28 -78 79 0
39 80 81 0
39 -80 -81 0
-39 80 -81 0
-39 -80 81 0
82 83 84 0
82 -83 -84 0
-82 83 -84 0
-82 -83 84 0
85 86 87 0
85 -86 -87 0
-85 86 -87 0
-85 -86 87 0
88 89 -90 0
88 -89 90 0
-88 89 90 0
-88 -89 -90 0
91 92 -93 0
91 -92 93 0
-91 92 93 0
-91 -92 -93 0
36 66 -94 0
36 -66 94 0
-36 66 94 0
-36 -66 -94 0
95 96 -97 0
95 -96 97 0
-95 96 97 0
-95 -96 -97 0
98 99 -100 0
98 -99 100 0
-98 99 100 0
-98 -99 -100 0
101 102 103 0
101 -102 -103 0
-101 102 -103 0
-101 -102 103 0
104 105 -106 0
104 -105 106 0
-104 105 106 0
-104 -105 -106 0
6 107 108 0
6 -107 -108 0
-6 107 -108 0
-6 -107 108 0
15 109 -110 0
15 -109 110 0
-15 109 110 0
-15 -109 -110 0
59 111 -112 0
59 -111 112 0
-59 111 112 0
-59 -111 -112 0
21 69 113 0
21 -69 -113 0
-21 69 -113 0
-21 -69 113 0
114 115 -116 0
114 -115 116 0
-114 115 116 0
-114 -115 -116 0
117 118 -119 0
117 -118 119 0
-117 118 119 0
-117 -118 -119 0
16 120 121 0
16 -120 -121 0
-16 120 -121 0
-16 -120 121 0
82 122 -123 0
82 -122 123 0
-82 122 123 0
-82 -122 -123 0
56 78 124 0
56 -78 -124 0
-56 78 -124 0
-56 -78 124 0
125 126 127 0
125 -126 -127 0
-125 126 -127 0
-125 -126 127 0
128 129 130 0
128 -129 -130 0
-128 129 -130 0
-128 -129 130 0
131 132 -133 0
131 -132 133 0
-131 132 133 0
-131 -132 -133 0
134 135 -136 0
134 -135 136 0
-134 135 136 0
-134 -135 -136 0
122 137 138 0
122 -137 -138 0
-122 137 -138 0
-122 -137 138 0
98 139 -140 0
98 -139 140 0
-98 139 140 0
-98 -139 -140 0
95 141 -142 0
95 -141 142 0
-95 141 142 0
-95 -141 -142 0
134 143 -144 0
134 -143 144 0
-134 143 144 0
-134 -143 -144 0
75 125 145 0
75 -125 -145 0
-75 125 -145 0
-75 -125 145 0
124 146 147 0
124 -146 -147 0
-124 146 -147 0
-124 -146 147 0
94 148 149 0
94 -148 -149 0
-94 148 -149 0
-94 -148 149 0
150 151 -152 0
150 -151 152 0
-150 151 152 0
-150 -151 -152 0
128 153 154 0
128 -153 -154 0
-128 153 -154 0
-128 -153 154 0
155 156 157 0
155 -156 -157 0
-155 156 -157 0
-155 -156 157 0
30 158 -159 0
30 -158 159 0
-30 158 159 0
-30 -158 -159 0
160 161 -162 0
160 -161 162 0
-160 161 162 0
-160 -161 -162 0
76 163 -164 0
76 -163 164 0
-76 163 164 0
-76 -163 -164 0
165 166 167 0
165 -166 -167 0
-165 166 -167 0
-165 -166 167 0
141 168 169 0
141 -168 -169 0
-141 168 -169 0
-141 -168 169 0
155 170 171 0
155 -170 -171 0
-155 170 -171 0
-155 -170 171 0
22 172 -173 0
22 -172 173 0
-22 172 173 0
-22 -172 -173 0
99 165 174 0
99 -165 -174 0
-99 165 -174 0
-99 -165 174 0
137 175 176 0
137 -175 -176 0
-137 175 -176 0
-137 -175 176 0
12 177 -178 0
12 -177 178 0
-12 177 178 0
-12 -177 -178 0
114 179 180 0
114 -179 -180 0
-114 179 -180 0
-114 -179 180 0
37 181 -182 0
37 -181 182 0
-37 181 182 0
-37 -181 -182 0
18 172 183 0
18 -172 -183 0
-18 172 -183 0
-18 -172 183 0
85 184 185 0
85 -184 -185 0
-85 184 -185 0
-85 -184 185 0
25 139 186 0
25 -139 -186 0
-25 139 -186 0
-25 -139 186 0
158 187 -188 0
158 -187 188 0
-158 187 188 0
-158 -187 -188 0
44 123 189 0
44 -123 -189 0
-44 123 -189 0
-44 -123 189 0
96 163 190 0
96 -163 -190 0
-96 163 -190 0
-96 -163 190 0
29 61 -191 0
29 -61 191 0
-29 61 191 0
-29 -61 -191 0
83 192 -193 0
83 -192 193 0
-83 192 193 0
-83 -192 -193 0
113 194 -195 0
113 -194 195 0
-113 194 195 0
-113 -194 -195 0
196 197 198 0
196 -197 -198 0
-196 197 -198 0
-196 -197 198 0
150 187 199 0
150 -187 -199 0
-150 187 -199 0
-150 -187 199 0
200 201 -202 0
200 -201 202 0
-200 201 202 0
-200 -201 -202 0
63 203 204 0
63 -203 -204 0
-63 203 -204 0
-63 -203 204 0
64 205 206 0
64 -205 -206 0
-64 205 -206 0
-64 -205 206 0
148 194 207 0
148 -194 -207 0
-148 194 -207 0
-148 -194 207 0
40 88 -208 0
40 -88 208 0
-40 88 208 0
-40 -88 -208 0
129 209 210 0
129 -209 -210 0
-129 209 -210 0
-129 -209 210 0
89 166 -211 0
89 -166 211 0
-89 166 211 0
-89 -166 -211 0
179 196 212 0
179 -196 -212 0
-179 196 -212 0
-179 -196 212 0
48 131 -189 0
48 -131 189 0
-48 131 189 0
-48 -131 -189 0
138 213 214 0
138 -213 -214 0
-138 213 -214 0
-138 -213 214 0
215 216 217 0
215 -216 -217 0
-215 216 -217 0
-215 -216 217 0
33 218 -219 0
33 -218 219 0
-33 218 219 0
-33 -218 -219 0
2 213 -220 0
2 -213 220 0
-2 213 220 0
-2 -213 -220 0
42 221 -222 0
42 -221 222 0
-42 221 222 0
-42 -221 -222 0
192 223 -224 0
192 -223 224 0
-192 223 224 0
-192 -223 -224 0
115 205 221 0
115 -205 -221 0
-115 205 -221 0
-115 -205 221 0
79 97 -225 0
79 -97 225 0
-79 97 225 0
-79 -97 -225 0
167 215 -226 0
167 -215 226 0
-167 215 226 0
-167 -215 -226 0
31 227 228 0
31 -227 -228 0
-31 227 -228 0
-31 -227 228 0
38 229 -230 0
38 -229 230 0
-38 229 230 0
-38 -229 -230 0
50 231 -232 0
50 -231 232 0
-50 231 232 0
-50 -231 -232 0
17 34 193 0
17 -34 -193 0
-17 34 -193 0
-17 -34 193 0
80 101 -190 0
80 -101 190 0
-80 101 190 0
-80 -101 -190 0
145 233 -234 0
145 -233 234 0
-145 233 234 0
-145 -233 -234 0
223 235 -236 0
223 -235 236 0
-223 235 236 0
-223 -235 -236 0
19 41 -184 0
19 -41 184 0
-19 41 184 0
-19 -41 -184 0
45 185 237 0
45 -185 -237 0
-45 185 -237 0
-45 -185 237 0
175 197 -238 0
175 -197 238 0
-175 197 238 0
-175 -197 -238 0
239 240 241 0
239 -240 -241 0
-239 240 -241 0
-239 -240 241 0
160 164 -177 0
160 -164 177 0
-160 164 177 0
-160 -164 -177 0
132 242 243 0
132 -242 -243 0
-132 242 -243 0
-132 -242 243 0
170 173 244 0
170 -173 -244 0
-170 173 -244 0
-170 -173 244 0
4 168 245 0
4 -168 -245 0
-4 168 -245 0
-4 -168 245 0
53 218 246 0
53 -218 -246 0
-53 218 -246 0
-53 -218 246 0
169 247 -248 0
169 -247 248 0
-169 247 248 0
-169 -247 -248 0
227 239 249 0
227 -239 -249 0
-227 239 -249 0
-227 -239 249 0
250 251 252 0
250 -251 -252 0
-250 251 -252 0
-250 -251 252 0
249 253 254 0
249 -253 -254 0
-249 253 -254 0
-249 -253 254 0
86 255 -256 0
86 -255 256 0
-86 255 256 0
-86 -255 -256 0
91 247 -257 0
91 -247 257 0
-91 247 257 0
-91 -247 -257 0
203 258 -259 0
203 -258 259 0
-203 258 259 0
-203 -258 -259 0
7 248 250 0
7 -248 -250 0
-7 248 -250 0
-7 -248 250 0
216 260 261 0
216 -260 -261 0
-216 260 -261 0
-216 -260 261 0
70 104 262 0
70 -104 -262 0
-70 104 -262 0
-70 -104 262 0
219 226 263 0
219 -226 -263 0
-219 226 -263 0
-219 -226 263 0
231 240 264 0
231 -240 -264 0
-231 240 -264 0
-231 -240 264 0
111 120 265 0
111 -120 -265 0
-111 120 -265 0
-111 -120 265 0
9 246 266 0
9 -246 -266 0
-9 246 -266 0
-9 -246 266 0
109 133 -267 0
109 -133 267 0
-109 133 267 0
-109 -133 -267 0
72 87 -153 0
72 -87 153 0
-72 87 153 0
-72 -87 -153 0
121 229 -242 0
121 -229 242 0
-121 229 242 0
-121 -229 -242 0
188 238 -268 0
188 -238 268 0
-188 238 268 0
-188 -238 -268 0
135 262 -269 0
135 -262 269 0
-135 262 269 0
-135 -262 -269 0
5 186 270 0
5 -186 -270 0
-5 186 -270 0
-5 -186 270 0
23 151 -271 0
23 -151 271 0
-23 151 271 0
-23 -151 -271 0
220 245 -268 0
220 -245 268 0
-220 245 268 0
-220 -245 -268 0
3 235 -272 0
3 -235 272 0
-3 235 272 0
-3 -235 -272 0
273 274 -275 0
273 -274 275 0
-273 274 275 0
-273 -274 -275 0
276 277 278 0
276 -277 -278 0
-276 277 -278 0
-276 -277 278 0
272 279 280 0
272 -279 -280 0
-272 279 -280 0
-272 -279 280 0
136 251 281 0
136 -251 -281 0
-136 251 -281 0
-136 -251 281 0
13 269 -282 0
13 -269 282 0
-13 269 282 0
-13 -269 -282 0
232 283 284 0
232 -283 -284 0
-232 283 -284 0
-232 -283 284 0
117 285 286 0
117 -285 -286 0
-117 285 -286 0
-117 -285 286 0
143 225 258 0
143 -225 -258 0
-143 225 -258 0
-143 -225 258 0
154 176 -287 0
154 -176 287 0
-154 176 287 0
-154 -176 -287 0
171 211 259 0
171 -211 -259 0
-171 211 -259 0
-171 -211 259 0
144 204 -266 0
144 -204 266 0
-144 204 266 0
-144 -204 -266 0
146 214 265 0
146 -214 -265 0
-146 214 -265 0
-146 -214 265 0
81 149 -180 0
81 -149 180 0
-81 149 180 0
-81 -149 -180 0
147 195 -288 0
147 -195 288 0
-147 195 288 0
-147 -195 -288 0
67 178 285 0
67 -178 -285 0
-67 178 -285 0
-67 -178 285 0
43 102 -289 0
43 -102 289 0
-43 102 289 0
-43 -102 -289 0
10 260 276 0
10 -260 -276 0
-10 260 -276 0
-10 -260 276 0
77 92 174 0
77 -92 -174 0
-77 92 -174 0
-77 -92 174 0
73 156 200 0
73 -156 -200 0
-73 156 -200 0
-73 -156 200 0
198 233 -279 0
198 -233 279 0
-198 233 279 0
-198 -233 -279 0
20 206 271 0
20 -206 -271 0
-20 206 -271 0
-20 -206 271 0
105 252 288 0
105 -252 -288 0
-105 252 -288 0
-105 -252 288 0
49 159 241 0
49 -159 -241 0
-49 159 -241 0
-49 -159 241 0
62 68 -90 0
62 -68 90 0
-62 68 90 0
-62 -68 -90 0
209 273 290 0
209 -273 -290 0
-209 273 -290 0
-209 -273 290 0
183 257 -289 0
183 -257 289 0
-183 257 289 0
-183 -257 -289 0
54 255 -291 0
54 -255 291 0
-54 255 291 0
-54 -255 -291 0
290 291 292 0
290 -291 -292 0
-290 291 -292 0
-290 -291 292 0
116 293 294 0
116 -293 -294 0
-116 293 -294 0
-116 -293 294 0
57 234 282 0
57 -234 -282 0
-57 234 -282 0
-57 -234 282 0
11 230 -256 0
11 -230 256 0
-11 230 256 0
-11 -230 -256 0
46 228 -293 0
46 -228 293 0
-46 228 293 0
-46 -228 -293 0
51 55 161 0
51 -55 -161 0
-51 55 -161 0
-51 -55 161 0
74 118 -295 0
74 -118 295 0
-74 118 295 0
-74 -118 -295 0
126 130 274 0
126 -130 -274 0
-126 130 -274 0
-126 -130 274 0
103 152 -181 0
103 -152 181 0
-103 152 181 0
-103 -152 -181 0
199 286 -296 0
199 -286 296 0
-199 286 296 0
-199 -286 -296 0
106 112 -275 0
106 -112 275 0
-106 112 275 0
-106 -112 -275 0
142 157 210 0
142 -157 -210 0
-142 157 -210 0
-142 -157 210 0
52 182 297 0
52 -182 -297 0
-52 182 -297 0
-52 -182 297 0
297 298 299 0
297 -298 -299 0
-297 298 -299 0
-297 -298 299 0
14 119 -201 0
14 -119 201 0
-14 119 201 0
-14 -119 -201 0
65 100 -298 0
65 -100 298 0
-65 100 298 0
-65 -100 -298 0
202 236 -253 0
202 -236 253 0
-202 236 253 0
-202 -236 -253 0
222 244 -280 0
222 -244 280 0
-222 244 280 0
-222 -244 -280 0
32 162 281 0
32 -162 -281 0
-32 162 -281 0
-32 -162 281 0
84 224 261 0
84 -224 -261 0
-84 224 -261 0
-84 -224 261 0
191 207 -217 0
191 -207 217 0
-191 207 217 0
-191 -207 -217 0
60 71 292 0
60 -71 -292 0
-60 71 -292 0
-60 -71 292 0
93 270 -299 0
93 -270 299 0
-93 270 299 0
-93 -270 -299 0
58 283 -296 0
58 -283 296 0
-58 283 296 0
-58 -283 -296 0
140 208 -263 0
140 -208 263 0
-140 208 263 0
-140 -208 -263 0
243 264 287 0
243 -264 -287 0
-243 264 -287 0
-243 -264 287 0
110 127 277 0
110 -127 -277 0
-110 127 -277 0
-110 -127 277 0
107 278 -300 0
107 -278 300 0
-107 278 300 0
-107 -278 -300 0
26 254 -295 0
26 -254 295 0
-26 254 295 0
-26 -254 -295 0
35 108 -300 0
35 -108 300 0
-35 108 300 0
-35 -108 -300 0
8 212 -294 0
8 -212 294 0
-8 212 294 0
-8 -212 -294 0
237 267 -284 0
237 -267 284 0
-237 267 284 0
-237 -267 -284 0
